100
1000
624
606
606
598
598
577
563
557
536
520
514
495
494
487
487
487
485
477
471
467
449
447
437
436
421
413
413
412
400
393
392
391
382
377
366
356
350
345
343
340
331
331
330
328
320
320
296
294
292
286
277
273
271
260
254
250
245
227
226
221
219
215
203
197
196
166
165
157
156
153
151
147
144
144
133
127
127
126
125
125
123
122
121
119
117
104
96
84
77
76
73
65
57
55
51
48
42
38
37
35
